NAME: Golden_5
TYPE: CVRP
COMMENT: 6460.98
DIMENSION: 201
CAPACITY: 900
DISTANCE: 1800.00000
VEHICLES: 5
EDGE_WEIGHT_TYPE: FUNCTION
EDGE_WEIGHT_FORMAT: EUC_2D
NODE_COORD_TYPE: TWOD_COORDS
NODE_COORD_SECTION
1 30.00000 0.00000
2 28.53170 9.27050
3 24.27050 17.63360
4 17.63360 24.27050
5 9.27050 28.53170
6 0.00000 30.00000
7 -9.27050 28.53170
8 -17.63360 24.27050
9 -24.27050 17.63360
10 -28.53170 9.27050
11 -30.00000 0.00000
12 -28.53170 -9.27050
13 -24.27050 -17.63360
14 -17.63360 -24.27050
15 -9.27050 -28.53170
16 0.00000 -30.00000
17 9.27050 -28.53170
18 17.63360 -24.27050
19 24.27050 -17.63360
20 28.53170 -9.27050
21 60.00000 0.00000
22 57.06340 18.54100
23 48.54100 35.26710
24 35.26710 48.54100
25 18.54100 57.06340
26 0.00000 60.00000
27 -18.54100 57.06340
28 -35.26710 48.54100
29 -48.54100 35.26710
30 -57.06340 18.54100
31 -60.00000 0.00000
32 -57.06340 -18.54100
33 -48.54100 -35.26710
34 -35.26710 -48.54100
35 -18.54100 -57.06340
36 0.00000 -60.00000
37 18.54100 -57.06340
38 35.26710 -48.54100
39 48.54100 -35.26710
40 57.06340 -18.54100
41 90.00000 0.00000
42 85.59510 27.81150
43 72.81150 52.90070
44 52.90070 72.81150
45 27.81150 85.59510
46 0.00000 90.00000
47 -27.81150 85.59510
48 -52.90070 72.81150
49 -72.81150 52.90070
50 -85.59510 27.81150
51 -90.00000 0.00000
52 -85.59510 -27.81150
53 -72.81150 -52.90070
54 -52.90070 -72.81150
55 -27.81150 -85.59510
56 0.00000 -90.00000
57 27.81150 -85.59510
58 52.90070 -72.81150
59 72.81150 -52.90070
60 85.59510 -27.81150
61 120.00000 0.00000
62 114.12680 37.08200
63 97.08200 70.53420
64 70.53420 97.08200
65 37.08200 114.12680
66 0.00000 120.00000
67 -37.08200 114.12680
68 -70.53420 97.08200
69 -97.08200 70.53420
70 -114.12680 37.08200
71 -120.00000 0.00000
72 -114.12680 -37.08210
73 -97.08200 -70.53420
74 -70.53420 -97.08200
75 -37.08200 -114.12680
76 0.00000 -120.00000
77 37.08210 -114.12680
78 70.53420 -97.08200
79 97.08210 -70.53420
80 114.12680 -37.08200
81 150.00000 0.00000
82 142.65849 46.35260
83 121.35250 88.16780
84 88.16780 121.35260
85 46.35250 142.65849
86 0.00000 150.00000
87 -46.35260 142.65849
88 -88.16780 121.35250
89 -121.35260 88.16780
90 -142.65849 46.35250
91 -150.00000 0.00000
92 -142.65849 -46.35260
93 -121.35250 -88.16780
94 -88.16780 -121.35260
95 -46.35250 -142.65849
96 0.00000 -150.00000
97 46.35260 -142.65849
98 88.16780 -121.35250
99 121.35260 -88.16780
100 142.65849 -46.35250
101 180.00000 0.00000
102 171.19020 55.62310
103 145.62309 105.80130
104 105.80130 145.62309
105 55.62310 171.19020
106 0.00000 180.00000
107 -55.62310 171.19020
108 -105.80140 145.62300
109 -145.62309 105.80130
110 -171.19020 55.62300
111 -180.00000 0.00000
112 -171.19020 -55.62310
113 -145.62300 -105.80140
114 -105.80130 -145.62309
115 -55.62300 -171.19020
116 0.00000 -180.00000
117 55.62310 -171.19020
118 105.80140 -145.62300
119 145.62309 -105.80130
120 171.19020 -55.62300
121 210.00000 0.00000
122 199.72189 64.89360
123 169.89360 123.43490
124 123.43490 169.89360
125 64.89360 199.72189
126 0.00000 210.00000
127 -64.89360 199.72189
128 -123.43490 169.89360
129 -169.89360 123.43490
130 -199.72189 64.89360
131 -210.00000 0.00000
132 -199.72189 -64.89360
133 -169.89360 -123.43490
134 -123.43490 -169.89360
135 -64.89350 -199.72189
136 0.00000 -210.00000
137 64.89360 -199.72189
138 123.43490 -169.89360
139 169.89360 -123.43490
140 199.72189 -64.89350
141 240.00000 0.00000
142 228.25360 74.16410
143 194.16409 141.06850
144 141.06850 194.16409
145 74.16410 228.25360
146 0.00000 240.00000
147 -74.16410 228.25360
148 -141.06850 194.16409
149 -194.16409 141.06850
150 -228.25360 74.16410
151 -240.00000 0.00000
152 -228.25360 -74.16410
153 -194.16409 -141.06850
154 -141.06841 -194.16409
155 -74.16400 -228.25360
156 0.00000 -240.00000
157 74.16410 -228.25360
158 141.06850 -194.16409
159 194.16409 -141.06841
160 228.25360 -74.16400
161 270.00000 0.00000
162 256.78519 83.43460
163 218.43460 158.70200
164 158.70200 218.43460
165 83.43460 256.78519
166 0.00000 270.00000
167 -83.43460 256.78519
168 -158.70200 218.43460
169 -218.43460 158.70200
170 -256.78531 83.43460
171 -270.00000 0.00000
172 -256.78519 -83.43460
173 -218.43460 -158.70200
174 -158.70200 -218.43460
175 -83.43460 -256.78531
176 0.00000 -270.00000
177 83.43460 -256.78519
178 158.70210 -218.43460
179 218.43460 -158.70200
180 256.78531 -83.43450
181 300.00000 0.00000
182 285.31699 92.70510
183 242.70509 176.33560
184 176.33560 242.70509
185 92.70510 285.31699
186 0.00000 300.00000
187 -92.70510 285.31699
188 -176.33560 242.70509
189 -242.70509 176.33560
190 -285.31699 92.70510
191 -300.00000 0.00000
192 -285.31699 -92.70510
193 -242.70509 -176.33560
194 -176.33549 -242.70509
195 -92.70510 -285.31699
196 0.00000 -300.00000
197 92.70510 -285.31699
198 176.33560 -242.70509
199 242.70509 -176.33549
200 285.31699 -92.70500
DEMAND_SECTION
1 10
2 30
3 30
4 10
5 10
6 30
7 30
8 10
9 10
10 30
11 30
12 10
13 10
14 30
15 30
16 10
17 10
18 30
19 30
20 10
21 10
22 30
23 30
24 10
25 10
26 30
27 30
28 10
29 10
30 30
31 30
32 10
33 10
34 30
35 30
36 10
37 10
38 30
39 30
40 10
41 10
42 30
43 30
44 10
45 10
46 30
47 30
48 10
49 10
50 30
51 30
52 10
53 10
54 30
55 30
56 10
57 10
58 30
59 30
60 10
61 10
62 30
63 30
64 10
65 10
66 30
67 30
68 10
69 10
70 30
71 30
72 10
73 10
74 30
75 30
76 10
77 10
78 30
79 30
80 10
81 10
82 30
83 30
84 10
85 10
86 30
87 30
88 10
89 10
90 30
91 30
92 10
93 10
94 30
95 30
96 10
97 10
98 30
99 30
100 10
101 10
102 30
103 30
104 10
105 10
106 30
107 30
108 10
109 10
110 30
111 30
112 10
113 10
114 30
115 30
116 10
117 10
118 30
119 30
120 10
121 10
122 30
123 30
124 10
125 10
126 30
127 30
128 10
129 10
130 30
131 30
132 10
133 10
134 30
135 30
136 10
137 10
138 30
139 30
140 10
141 10
142 30
143 30
144 10
145 10
146 30
147 30
148 10
149 10
150 30
151 30
152 10
153 10
154 30
155 30
156 10
157 10
158 30
159 30
160 10
161 10
162 30
163 30
164 10
165 10
166 30
167 30
168 10
169 10
170 30
171 30
172 10
173 10
174 30
175 30
176 10
177 10
178 30
179 30
180 10
181 10
182 30
183 30
184 10
185 10
186 30
187 30
188 10
189 10
190 30
191 30
192 10
193 10
194 30
195 30
196 10
197 10
198 30
199 30
200 10
DEPOT_SECTION
0.00000 0.00000
-1
EOF
